nNurses = 181;
nHours = 37;
minHours = 10;
maxHours = 17;
maxConsec = 14;
maxPresence = 22;
demand = [26, 21, 22, 25, 27, 26, 31, 34, 39, 34, 38, 35, 35, 40, 39, 37, 32, 36, 34, 32, 37, 33, 30, 28, 23, 28, 32, 28, 30, 34, 39, 35, 31, 31, 26, 31, 35];
